&CONTROL
   calculation      = 'scf'
   tstress          = .true.
   tprnfor          = .true.
   pseudo_dir       = '/home/max/Documents/TestQE/all_pbe_UPF_v1.5'
/
&SYSTEM
   ecutwfc          = 40
   ecutrho          = 400
   vdw_corr         = 'dft-d3'
   xc               = 'PBE'
   ntyp             = 1
   nat              = 32
   ibrav            = 0
/
&ELECTRONS
/
&IONS
/
&CELL
/

ATOMIC_SPECIES
C 12.011 c_pbe_v1.2.uspp.F.UPF

K_POINTS automatic
12 12 1  0 0 0

CELL_PARAMETERS angstrom
9.86800000000000 0.00000000000000 0.00000000000000
-4.93400000000000 8.54593868454484 0.00000000000000
0.00000000000000 0.00000000000000 10.00000000000000

ATOMIC_POSITIONS angstrom
C 0.0000000000 0.0000000000 0.0000000000 
C 0.0000000000 1.4243231141 0.0000000000 
C -1.2335000000 2.1364846711 0.0000000000 
C -1.2335000000 3.5608077852 0.0000000000 
C -2.4670000000 4.2729693423 0.0000000000 
C -2.4670000000 5.6972924564 0.0000000000 
C -3.7005000000 6.4094540134 0.0000000000 
C -3.7005000000 7.8337771275 0.0000000000 
C 2.4670000000 0.0000000000 0.0000000000 
C 2.4670000000 1.4243231141 0.0000000000 
C 1.2335000000 2.1364846711 0.0000000000 
C 1.2335000000 3.5608077852 0.0000000000 
C 0.0000000000 4.2729693423 0.0000000000 
C 0.0000000000 5.6972924564 0.0000000000 
C -1.2335000000 6.4094540134 0.0000000000 
C -1.2335000000 7.8337771275 0.0000000000 
C 4.9340000000 0.0000000000 0.0000000000 
C 4.9340000000 1.4243231141 0.0000000000 
C 3.7005000000 2.1364846711 0.0000000000 
C 3.7005000000 3.5608077852 0.0000000000 
C 2.4670000000 4.2729693423 0.0000000000 
C 2.4670000000 5.6972924564 0.0000000000 
C 1.2335000000 6.4094540134 0.0000000000 
C 1.2335000000 7.8337771275 0.0000000000 
C 7.4010000000 0.0000000000 0.0000000000 
C 7.4010000000 1.4243231141 0.0000000000 
C 6.1675000000 2.1364846711 0.0000000000 
C 6.1675000000 3.5608077852 0.0000000000 
C 4.9340000000 4.2729693423 0.0000000000 
C 4.9340000000 5.6972924564 0.0000000000 
C 3.7005000000 6.4094540134 0.0000000000 
C 3.7005000000 7.8337771275 0.0000000000 

