&CONTROL
   tstress          = .true.
   tprnfor          = .true.
   pseudo_dir       = '/home/max/Documents/TestQE/all_pbe_UPF_v1.5'
/
&SYSTEM
   ecutwfc          = 40
   ecutrho          = 400
   ntyp             = 2
   nat              = 3
   ibrav            = 0
/
&ELECTRONS
/
&IONS
/
&CELL
/

ATOMIC_SPECIES
H 1.008 h_pbe_v1.4.uspp.F.UPF
O 15.999 o_pbe_v1.2.uspp.F.UPF

K_POINTS gamma

CELL_PARAMETERS angstrom
8.00000000000000 0.00000000000000 0.00000000000000
0.00000000000000 8.10000000000000 0.00000000000000
0.00000000000000 0.00000000000000 8.20000000000000

ATOMIC_POSITIONS angstrom
H 0.9500000000 0.0000000000 0.0000000000 
H -0.2056176332 0.9274812068 0.0000000000 
O 0.0000000000 0.0000000000 0.0000000000 

