&CONTROL
   calculation      = 'scf'
   tstress          = .true.
   tprnfor          = .true.
   disk_io          = 'None'
   pseudo_dir       = '/home/max/Documents/TestQE/all_pbe_UPF_v1.5'
/
&SYSTEM
   ecutwfc          = 40
   ecutrho          = 400
   occupations      = 'smearing'
   degauss          = 0.02
   input_dft        = 'PBE'
   vdw_corr         = 'dft-d3'
   ntyp             = 1
   nat              = 32
   ibrav            = 0
/
&ELECTRONS
/
&IONS
/
&CELL
/

ATOMIC_SPECIES
C 12.011 c_pbe_v1.2.uspp.F.UPF

K_POINTS automatic
12 12 1  0 0 0

CELL_PARAMETERS angstrom
9.84000000000000 0.00000000000000 0.00000000000000
-4.92000000000000 8.52168997323888 0.00000000000000
0.00000000000000 0.00000000000000 10.00000000000000

ATOMIC_POSITIONS angstrom
C 0.0000000000 0.0000000000 0.0000000000 
C 0.0000000000 1.4202816622 0.0000000000 
C -1.2300000000 2.1304224933 0.0000000000 
C -1.2300000000 3.5507041555 0.0000000000 
C -2.4600000000 4.2608449866 0.0000000000 
C -2.4600000000 5.6811266488 0.0000000000 
C -3.6900000000 6.3912674799 0.0000000000 
C -3.6900000000 7.8115491421 0.0000000000 
C 2.4600000000 0.0000000000 0.0000000000 
C 2.4600000000 1.4202816622 0.0000000000 
C 1.2300000000 2.1304224933 0.0000000000 
C 1.2300000000 3.5507041555 0.0000000000 
C 0.0000000000 4.2608449866 0.0000000000 
C 0.0000000000 5.6811266488 0.0000000000 
C -1.2300000000 6.3912674799 0.0000000000 
C -1.2300000000 7.8115491421 0.0000000000 
C 4.9200000000 0.0000000000 0.0000000000 
C 4.9200000000 1.4202816622 0.0000000000 
C 3.6900000000 2.1304224933 0.0000000000 
C 3.6900000000 3.5507041555 0.0000000000 
C 2.4600000000 4.2608449866 0.0000000000 
C 2.4600000000 5.6811266488 0.0000000000 
C 1.2300000000 6.3912674799 0.0000000000 
C 1.2300000000 7.8115491421 0.0000000000 
C 7.3800000000 0.0000000000 0.0000000000 
C 7.3800000000 1.4202816622 0.0000000000 
C 6.1500000000 2.1304224933 0.0000000000 
C 6.1500000000 3.5507041555 0.0000000000 
C 4.9200000000 4.2608449866 0.0000000000 
C 4.9200000000 5.6811266488 0.0000000000 
C 3.6900000000 6.3912674799 0.0000000000 
C 3.6900000000 7.8115491421 0.0000000000 

